
  32    1
  10

   0   0  13 2 3 4 6 7 8 9 11 12 14 16 19 31 
   4   3   9 30 29 28 27 25 24 17 15 13 
   6   2   4 29 18 15 5 
   1   3   7 27 26 25 24 22 17 13 
   8   9   5 28 26 25 17 10 
   9   9   5 27 26 25 18 10 
   4   6   6 26 25 23 22 18 17 
   1   7   5 26 25 24 21 20 
   9   8   5 24 23 22 21 20 
   3   7   4 24 23 22 20 
   1   6   4 28 27 25 23 
   3   8   4 27 24 22 20 
   2   7   3 23 20 18 
   1   5   2 28 17 
   4   6   3 26 22 21 
   7   4   3 22 21 20 
   6   3   2 21 20 
   3   5   1 21 
   3   5   1 20 
  10  10   1 32
  10   3   1 32
   8   6   1 32
   4   6   1 32
  10   5   1 32
   6   5   1 32
   9   9   1 32
   1   7   1 32
  10   8   1 32
   7   9   1 32
   1   5   1 32
   7   4   1 32
   0   0   0 
